Version identifier: 22.1.0.0 | 2022-03-09 | 1a383f8ce
CPXPARAM_Threads                                 1
CPXPARAM_MIP_Strategy_VariableSelect             3
CPXPARAM_TimeLimit                               600
Tried aggregator 1 time.
Reduced MIP has 4520 rows, 18000 columns, and 114277 nonzeros.
Reduced MIP has 13500 binaries, 4500 generals, 0 SOSs, and 0 indicators.
Presolve time = 0.06 sec. (46.63 ticks)
Found incumbent of value 3.733000 after 0.17 sec. (119.39 ticks)
Probing time = 0.01 sec. (6.09 ticks)
Tried aggregator 1 time.
Detecting symmetries...
Reduced MIP has 4520 rows, 18000 columns, and 114277 nonzeros.
Reduced MIP has 13500 binaries, 4500 generals, 0 SOSs, and 0 indicators.
Presolve time = 0.08 sec. (59.59 ticks)
Probing time = 0.01 sec. (6.09 ticks)
Clique table members: 506.
MIP emphasis: balance optimality and feasibility.
MIP search method: dynamic search.
Parallel mode: none, using 1 thread.
Root relaxation solution time = 5.53 sec. (4895.16 ticks)

        Nodes                                         Cuts/
   Node  Left     Objective  IInf  Best Integer    Best Bound    ItCnt     Gap

*     0+    0                            3.7330        0.0000           100.00%
      0     0        0.0000  3718        3.7330        0.0000    12006  100.00%
*     0+    0                            0.0320        0.0000           100.00%
*     0+    0                            0.0240        0.0000           100.00%
*     0+    0                            0.0220        0.0000           100.00%
*     0+    0                            0.0210        0.0000           100.00%
      0     0  -1.00000e+75     0        0.0210        0.0000    12006  100.00%
      0     2        0.0000   732        0.0210        0.0000    12006  100.00%
Elapsed time = 33.68 sec. (29768.85 ticks, tree = 0.01 MB, solutions = 5)
      1     3        0.0000  2672        0.0210        0.0000    47595  100.00%
      2     4        0.0000  1465        0.0210        0.0000    59256  100.00%
      3     5        0.0000  3066        0.0210        0.0000    74943  100.00%
      4     6        0.0000  1478        0.0210        0.0000    76136  100.00%
      5     7        0.0000  3043        0.0210        0.0000    93800  100.00%
      6     8        0.0000  1489        0.0210        0.0000    95537  100.00%
      7     9        0.0000  1414        0.0210        0.0000   103112  100.00%
      8    10        0.0000  1396        0.0210        0.0000   107117  100.00%
      9    11        0.0000  1346        0.0210        0.0000   114469  100.00%
     10    12        0.0000  1415        0.0210        0.0000   120573  100.00%
Elapsed time = 108.33 sec. (98163.14 ticks, tree = 0.23 MB, solutions = 5)
     11    13        0.0000  1401        0.0210        0.0000   128851  100.00%
     12    14        0.0000  1745        0.0210        0.0000   136853  100.00%
     13    15        0.0000  1465        0.0210        0.0000   142689  100.00%
     14    16        0.0000  1937        0.0210        0.0000   159340  100.00%
     15    17        0.0000  1471        0.0210        0.0000   162252  100.00%
     16    18        0.0000  1513        0.0210        0.0000   171007  100.00%
     17    19        0.0000  1512        0.0210        0.0000   179681  100.00%
     18    20        0.0000  1569        0.0210        0.0000   194474  100.00%
     19    21        0.0000  1520        0.0210        0.0000   194600  100.00%
     20    22        0.0000  1369        0.0210        0.0000   203141  100.00%
Elapsed time = 166.56 sec. (149486.00 ticks, tree = 0.66 MB, solutions = 5)
     22    24        0.0000  1491        0.0210        0.0000   217560  100.00%
     23    25        0.0000  1310        0.0210        0.0000   218048  100.00%
     24    26        0.0000  1192        0.0210        0.0000   230755  100.00%
     25    27        0.0000  1659        0.0210        0.0000   254342  100.00%
     26    28        0.0000  1207        0.0210        0.0000   258609  100.00%
     27    29        0.0000  1363        0.0210        0.0000   272365  100.00%
     28    30        0.0000  1201        0.0210        0.0000   276662  100.00%
     29    31        0.0000  1411        0.0210        0.0000   296087  100.00%
     30    32        0.0000  1204        0.0210        0.0000   297950  100.00%
     31    33        0.0000  1137        0.0210        0.0000   323480  100.00%
Elapsed time = 201.61 sec. (178949.75 ticks, tree = 1.07 MB, solutions = 5)
     32    34        0.0000  1153        0.0210        0.0000   330501  100.00%
     33    35        0.0000  1139        0.0210        0.0000   330567  100.00%
     34    36        0.0000  1244        0.0210        0.0000   338537  100.00%
     36    38        0.0000  1290        0.0210        0.0000   344107  100.00%
     37    39       -0.0000  1141        0.0210        0.0000   344111  100.00%
     38    40        0.0000  1350        0.0210        0.0000   359015  100.00%
     39    41        0.0000  3350        0.0210        0.0000   365360  100.00%
     40    42        0.0000  2656        0.0210        0.0000   380616  100.00%
     41    43        0.0000  1354        0.0210        0.0000   383153  100.00%
     42    44        0.0000  1337        0.0210        0.0000   389701  100.00%
Elapsed time = 264.00 sec. (234961.50 ticks, tree = 1.44 MB, solutions = 5)
     43    45        0.0000  1373        0.0210        0.0000   396862  100.00%
     45    47        0.0000  1393        0.0210        0.0000   406520  100.00%
     47    49        0.0000  1359        0.0210        0.0000   407709  100.00%
     48    50       -0.0000  1363        0.0210        0.0000   418841  100.00%
     49    51        0.0000  1402        0.0210        0.0000   422249  100.00%
     50    52        0.0000  1356        0.0210        0.0000   422832  100.00%
     51    53        0.0000  1265        0.0210        0.0000   429970  100.00%
     53    55        0.0000  1266        0.0210        0.0000   435760  100.00%
     54    56        0.0000  1216        0.0210        0.0000   443300  100.00%
     55    57        0.0000  1271        0.0210        0.0000   449396  100.00%
Elapsed time = 291.03 sec. (257519.81 ticks, tree = 1.92 MB, solutions = 5)
     57    59        0.0000  1292        0.0210        0.0000   458438  100.00%
     59    61        0.0000  1293        0.0210        0.0000   469308  100.00%
     61    63        0.0000  1272        0.0210        0.0000   478919  100.00%
     63    65        0.0000  1234        0.0210        0.0000   484248  100.00%
     65    67        0.0000  1191        0.0210        0.0000   491241  100.00%
     66    68        0.0000  1246        0.0210        0.0000   499341  100.00%
     68    70        0.0000  1229        0.0210        0.0000   513645  100.00%
     70    72        0.0000  1206        0.0210        0.0000   522102  100.00%
     72    74        0.0000  1238        0.0210        0.0000   530468  100.00%
     75    77        0.0000  1185        0.0210        0.0000   536505  100.00%
Elapsed time = 317.62 sec. (278725.03 ticks, tree = 2.72 MB, solutions = 5)
     77    79        0.0000  1171        0.0210        0.0000   538975  100.00%
     78    80        0.0000  1193        0.0210        0.0000   545902  100.00%
     80    82        0.0000  1209        0.0210        0.0000   552776  100.00%
     82    84        0.0000  1152        0.0210        0.0000   557199  100.00%
     83    85        0.0000  1229        0.0210        0.0000   564453  100.00%
     85    87        0.0000  1206        0.0210        0.0000   573328  100.00%
     87    89        0.0000  1200        0.0210        0.0000   580534  100.00%
     89    91        0.0000  1253        0.0210        0.0000   590504  100.00%
     91    93        0.0000  1168        0.0210        0.0000   596122  100.00%
     93    95        0.0000  1172        0.0210        0.0000   604844  100.00%
Elapsed time = 340.77 sec. (297282.31 ticks, tree = 3.44 MB, solutions = 5)
     95    97        0.0000  1231        0.0210        0.0000   614276  100.00%
     97    99        0.0000  1207        0.0210        0.0000   620636  100.00%
     99   101        0.0000  1178        0.0210        0.0000   623743  100.00%
    100   102        0.0000  1190        0.0210        0.0000   624732  100.00%
    101   103        0.0000  1177        0.0210        0.0000   627471  100.00%
    102   104        0.0000  1200        0.0210        0.0000   631232  100.00%
    104   106        0.0000  1242        0.0210        0.0000   637818  100.00%
    105   107        0.0000  1176        0.0210        0.0000   640363  100.00%
    107   109        0.0000  1190        0.0210        0.0000   645560  100.00%
    108   110        0.0000  1189        0.0210        0.0000   651581  100.00%
Elapsed time = 359.17 sec. (312178.96 ticks, tree = 4.05 MB, solutions = 5)
    110   112        0.0000  1206        0.0210        0.0000   660475  100.00%
    112   114       -0.0000  1236        0.0210        0.0000   662043  100.00%
    113   115        0.0000  1231        0.0210        0.0000   665021  100.00%
    114   116        0.0000  1230        0.0210        0.0000   670041  100.00%
    115   117       -0.0000  1263        0.0210        0.0000   676413  100.00%
    117   119        0.0000  1324        0.0210        0.0000   682911  100.00%
    119   121       -0.0000  1277        0.0210        0.0000   688535  100.00%
    120   122       -0.0000  1323        0.0210        0.0000   690806  100.00%
    121   123       -0.0000  1186        0.0210        0.0000   696404  100.00%
    122   124        0.0000  1072        0.0210        0.0000   703339  100.00%
Elapsed time = 378.43 sec. (327529.85 ticks, tree = 4.66 MB, solutions = 5)
    123   125        0.0000  1030        0.0210        0.0000   712109  100.00%
    124   126       -0.0000  1021        0.0210        0.0000   716822  100.00%
    126   128        0.0000  1029        0.0210        0.0000   721793  100.00%
    127   129        0.0000  1012        0.0210        0.0000   728412  100.00%
    129   131        0.0000   990        0.0210        0.0000   732414  100.00%
    130   132       -0.0000  1072        0.0210        0.0000   738474  100.00%
    132   134       -0.0000  1009        0.0210        0.0000   744911  100.00%
    133   135       -0.0000   965        0.0210        0.0000   749453  100.00%
    135   137        0.0000   984        0.0210        0.0000   752174  100.00%
    143   145        0.0000   961        0.0210        0.0000   773507  100.00%
Elapsed time = 400.04 sec. (344636.97 ticks, tree = 5.47 MB, solutions = 5)
    151   153        0.0000   759        0.0210        0.0000   790884  100.00%
    158   160        0.0000   627        0.0210        0.0000   808873  100.00%
    163   165       -0.0000   572        0.0210        0.0000   821094  100.00%
    167   169        0.0000   588        0.0210        0.0000   837656  100.00%
    170   172       -0.0000   582        0.0210        0.0000   852332  100.00%
    174   176        0.0000   572        0.0210        0.0000   870200  100.00%
    177   179       -0.0000   622        0.0210        0.0000   886816  100.00%
    180   182       -0.0000   626        0.0210        0.0000   906733  100.00%
    187   189       -0.0000   611        0.0210        0.0000   926489  100.00%
    191   193       -0.0000   670        0.0210        0.0000   944512  100.00%
Elapsed time = 478.17 sec. (415629.91 ticks, tree = 7.49 MB, solutions = 5)
    194   196       -0.0000   599        0.0210        0.0000   961969  100.00%
    198   200        0.0000   707        0.0210        0.0000   978542  100.00%
    201   203        0.0000   578        0.0210        0.0000   991434  100.00%
    205   207       -0.0000   718        0.0210        0.0000  1010352  100.00%
    209   211        0.0000   481        0.0210        0.0000  1028674  100.00%
    213   215        0.0000   467        0.0210        0.0000  1046453  100.00%
    216   218        0.0000   517        0.0210        0.0000  1067158  100.00%
    220   222       -0.0000   634        0.0210        0.0000  1086013  100.00%
    224   226        0.0000   573        0.0210        0.0000  1106067  100.00%
    229   231        0.0000   469        0.0210        0.0000  1122994  100.00%
Elapsed time = 524.17 sec. (458582.86 ticks, tree = 9.06 MB, solutions = 5)
    233   235        0.0000   501        0.0210        0.0000  1139929  100.00%
    237   239        0.0000   485        0.0210        0.0000  1160726  100.00%
    241   243       -0.0000   472        0.0210        0.0000  1185525  100.00%
    245   247       -0.0000   570        0.0210        0.0000  1210790  100.00%
    251   253        0.0000   560        0.0210        0.0000  1226276  100.00%
    255   257        0.0000   782        0.0210        0.0000  1246194  100.00%
    259   261       -0.0000   510        0.0210        0.0000  1266874  100.00%
    263   265        0.0000   495        0.0210        0.0000  1284692  100.00%
    267   269        0.0000   495        0.0210        0.0000  1303812  100.00%
    270   272       -0.0000   450        0.0210        0.0000  1321918  100.00%
Elapsed time = 573.74 sec. (504259.13 ticks, tree = 10.77 MB, solutions = 5)
    273   275       -0.0000   444        0.0210        0.0000  1336089  100.00%
    277   279        0.0000   517        0.0210        0.0000  1352311  100.00%
    282   284        0.0000   420        0.0210        0.0000  1370471  100.00%
    285   287        0.0000   808        0.0210        0.0000  1393365  100.00%
    289   291        0.0000   408        0.0210        0.0000  1411322  100.00%

Root node processing (before b&c):
  Real time             =   33.63 sec. (29734.44 ticks)
Sequential b&c:
  Real time             =  566.38 sec. (498886.69 ticks)
                          ------------
Total (root+branch&cut) =  600.01 sec. (528621.12 ticks)
Primal number of violations:	0.021
Dual number of violations:	0
Status:	Feasible
Time:	599.98
Sequence:
	15
	6
	0
	10
	19
	2
	17
	9
	16
	17
	9
	16
	17
	11
	2
	10
	19
	0
	10
	8
	2
	17
	19
	0
	10
	19
	0
	17
	19
	7
	17
	19
	4
	10
	16
	7
	15
	0
	16
	15
	7
	7
	15
	7
	7
	15
	16
	2
	5
	13
	11
	5
	13
	8
	12
	13
	11
	5
	18
	19
	5
	18
	9
	12
	18
	9
	12
	1
	11
	14
	1
	9
	14
	1
	8
	14
	1
	9
	14
	1
	4
	14
	18
	8
	5
	1
	8
	14
	1
	9
	14
	1
	9
	14
	1
	11
	14
	1
	9
	14
	1
	11
	12
	13
	11
	5
	18
	19
	5
	18
	4
	14
	3
	18
	12
	9
	1
	14
	11
	1
	14
	9
	1
	12
	9
	1
	14
	8
	1
	14
	9
	1
	14
	9
	7
	16
	15
	0
	0
	15
	16
	0
	15
	0
	16
	17
	3
	2
	17
	19
	2
	17
	3
	4
	10
	3
	16
	17
	11
	16
	17
	11
	7
	10
	11
	7
	10
	9
	2
	17
	8
	2
	17
	16
	3
	10
	7
	16
	15
	3
	16
	4
	3
	18
	5
	8
	13
	12
	9
	13
	12
	2
	9
	5
	7
	19
	17
	7
	8
	5
	13
	9
	12
	13
	8
	5
	18
	8
	5
	13
	11
	5
	13
	11
	12
	13
	11
	5
	18
	19
	5
	18
	9
	5
	13
	11
	12
	13
	9
	12
	13
	8
	5
	18
	11
	5
	13
	8
	5
	2
	19
	5
	1
	8
	14
	13
	9
	12
	18
	19
	17
	7
	11
	17
	14
	11
	17
	7
	8
	10
	0
	19
	17
	0
	8
	10
	7
	9
	10
	6
	9
	10
	6
	11
	17
	6
	11
	10
	6
	11
	17
	2
	11
	17
	16
	7
	15
	16
	7
	15
	7
	2
	19
	5
	1
	8
	12
	13
	8
	5
	13
	9
	12
	18
	8
	5
	13
	8
	12
	13
	11
	5
	18
	19
	5
	18
	9
	14
	1
	3
	14
	18
	9
	5
	18
	4
	14
	3
	4
	17
	16
	7
	15
	16
	7
	15
	6
	2
	15
	6
	0
	15
	6
	2
	15
	7
	16
	17
	2
	9
	10
	2
	9
	10
	6
	4
	17
	16
	0
	15
	2
	6
	15
	0
	2
	10
	3
	4
	10
	3
	4
	10
	3
	4
	18
	5
	4
	13
	5
	8
	18
	14
	3
	4
	10
	3
	4
	10
	0
	19
	5
	18
	19
	5
	18
	4
	3
	14
	13
	4
	12
	18
	8
	5
	13
	9
	5
	18
	8
	14
	1
	9
	14
	2
	7
	15
	0
	2
	15
	6
	7
	15
	16
	0
	15
	6
	7
	10
	8
	0
	10
	3
	4
	17
	7
	8
	10
	2
	3
	17
	4
	3
	10
	4
	3
	14
	1
	11
	14
	1
	9
	14
	1
	11
	14
	1
	9
	12
	13
	8
	5
	18
	19
	5
	18
	9
	5
	18
	8
	14
	0
	7
	15
	6
	7
	15
	16
	0
	15
	0
	16
	15
	0
	0
	15
	16
	0
	15
	6
	2
	15
	7
	7
	15
	16
	0
	15
	7
	16
	15
